SPARKNaCl/why3-cvc5/sparknacl-stream.adb_189_35_range_check3_1.smt2
;; produced by cvc5.drv ;;
(set-logic ALL)
(set-info :smt-lib-version 2.6)
;;; generated by SMT-LIB2 driver
;;; SMT-LIB2 driver: bit-vectors, common part
;;; SMT-LIB2: integer arithmetic
;; "pow2"
(declare-fun pow2 (Int) Int)

(declare-const two_power_size_minus_one Int)

;; "two_power_size_minus_one_val"
(assert (= two_power_size_minus_one (pow2 (- 8 1))))

;; "min"
(define-fun min ((x Int) (y Int)) Int
  (ite (<= x y) x y))

;; "max"
(define-fun max ((x Int) (y Int)) Int
  (ite (<= x y) y x))

;; "Min_r"
(assert (forall ((x Int) (y Int)) (=> (<= y x) (= (min x y) y))))

;; "Max_l"
(assert (forall ((x Int) (y Int)) (=> (<= y x) (= (max x y) x))))

;; "Min_comm"
(assert (forall ((x Int) (y Int)) (= (min x y) (min y x))))

;; "Max_comm"
(assert (forall ((x Int) (y Int)) (= (max x y) (max y x))))

;; "Min_assoc"
(assert
  (forall ((x Int) (y Int) (z Int)) (= (min (min x y) z) (min x (min y z)))))

;; "Max_assoc"
(assert
  (forall ((x Int) (y Int) (z Int)) (= (max (max x y) z) (max x (max y z)))))

(declare-sort byte 0)

;; "to_rep"
(declare-fun to_rep (byte) (_ BitVec 8))

;; "of_rep"
(declare-fun of_rep ((_ BitVec 8)) byte)

;; "inversion_axiom"
(assert
  (forall ((x byte)) (! (= (of_rep (to_rep x)) x) :pattern ((to_rep x)) )))

;; "range_axiom"
(assert true)

;; "coerce_axiom"
(assert
  (forall ((x (_ BitVec 8)))
    (! (= (to_rep (of_rep x)) x) :pattern ((to_rep (of_rep x))) )))

(declare-sort map1 0)

;; "has_bounds"
(declare-fun has_bounds (map1
  Int
  Int) Bool)

;; "get"
(declare-fun get (map1
  Int) byte)

(declare-sort tinteger_32B 0)

;; "tinteger_32B'int"
(declare-fun tinteger_32Bqtint (tinteger_32B) Int)

;; "tinteger_32B'axiom"
(assert
  (forall ((i tinteger_32B))
    (and
      (<= (- 2147483648) (tinteger_32Bqtint i))
      (<= (tinteger_32Bqtint i) 2147483647))))

;; "in_range"
(define-fun in_range ((x Int)) Bool
  (and (<= (- 2147483648) x) (<= x 2147483647)))

(declare-const c__first tinteger_32B)

(declare-const c__last tinteger_32B)

(declare-const n map1)

;; "to_rep"
(define-fun to_rep1 ((x tinteger_32B)) Int
  (tinteger_32Bqtint x))

;; "of_rep"
(declare-fun of_rep1 (Int) tinteger_32B)

;; "inversion_axiom"
(assert
  (forall ((x tinteger_32B))
    (! (= (of_rep1 (to_rep1 x)) x) :pattern ((to_rep1 x)) )))

;; "range_axiom"
(assert
  (forall ((x tinteger_32B))
    (! (in_range (to_rep1 x)) :pattern ((to_rep1 x)) )))

;; "coerce_axiom"
(assert
  (forall ((x Int))
    (! (=> (in_range x) (= (to_rep1 (of_rep1 x)) x)) :pattern ((to_rep1
                                                                 (of_rep1 x))) )))

;; "in_range"
(define-fun in_range1 ((x Int)) Bool
  (and (<= 0 x) (<= x 2147483647)))

(declare-datatypes ((t 0))
  (((tqtmk (rec__first tinteger_32B)(rec__last tinteger_32B)))))

;; "mk"
(declare-fun mk (Int
  Int) t)

;; "mk_def"
(assert
  (forall ((f Int) (l Int))
    (! (=>
         (in_range f)
         (=>
           (in_range l)
           (and
             (= (to_rep1 (rec__first (mk f l))) f)
             (= (to_rep1 (rec__last (mk f l))) l)))) :pattern ((mk f l)) )))

;; "dynamic_property"
(define-fun dynamic_property ((range_first Int) (range_last Int) (low Int) (high Int)) Bool
  (and
    (in_range low)
    (and
      (in_range high)
      (=> (<= low high) (and (in_range1 low) (in_range1 high))))))

(declare-datatypes ((us_t 0))
  (((us_tqtmk (elts map1)(rt t)))))

;; "of_array"
(define-fun of_array ((a map1) (f Int) (l Int)) us_t
  (us_tqtmk a (mk f l)))

;; "well_formed"
(define-fun well_formed ((a us_t)) Bool
  (has_bounds
    (elts a)
    (to_rep1 (rec__first (rt a)))
    (to_rep1 (rec__last (rt a)))))

(declare-const sigma map1)

;; "sparknacl__sigma__aggregate_def"
(declare-fun sparknacl__sigma__aggregate_def ((_ BitVec 8)
  (_ BitVec 8)
  (_ BitVec 8)
  (_ BitVec 8)
  (_ BitVec 8)
  (_ BitVec 8)
  (_ BitVec 8)
  (_ BitVec 8)
  (_ BitVec 8)
  (_ BitVec 8)
  (_ BitVec 8)
  (_ BitVec 8)
  (_ BitVec 8)
  (_ BitVec 8)
  (_ BitVec 8)
  (_ BitVec 8)) map1)

;; "sigma__def_axiom"
(assert
  (= sigma (let ((temp___191qtunused (sparknacl__sigma__aggregate_def
                                       #x65
                                       #x78
                                       #x70
                                       #x61
                                       #x6E
                                       #x64
                                       #x20
                                       #x33
                                       #x32
                                       #x2D
                                       #x62
                                       #x79
                                       #x74
                                       #x65
                                       #x20
                                       #x6B)))
             (sparknacl__sigma__aggregate_def
               #x65
               #x78
               #x70
               #x61
               #x6E
               #x64
               #x20
               #x33
               #x32
               #x2D
               #x62
               #x79
               #x74
               #x65
               #x20
               #x6B))))

;; "def_axiom"
(assert
  (forall ((temp___172 (_ BitVec 8)) (temp___173 (_ BitVec 8)) (temp___174 (_ BitVec 8)) (temp___175 (_ BitVec 8)) (temp___176 (_ BitVec 8)) (temp___177 (_ BitVec 8)) (temp___178 (_ BitVec 8)) (temp___179 (_ BitVec 8)) (temp___180 (_ BitVec 8)) (temp___181 (_ BitVec 8)) (temp___182 (_ BitVec 8)) (temp___183 (_ BitVec 8)) (temp___184 (_ BitVec 8)) (temp___185 (_ BitVec 8)) (temp___186 (_ BitVec 8)) (temp___187 (_ BitVec 8)))
    (let ((temp___188 (sparknacl__sigma__aggregate_def
                        temp___172
                        temp___173
                        temp___174
                        temp___175
                        temp___176
                        temp___177
                        temp___178
                        temp___179
                        temp___180
                        temp___181
                        temp___182
                        temp___183
                        temp___184
                        temp___185
                        temp___186
                        temp___187)))
      (and
        (and
          (and
            (= (to_rep (get temp___188 0)) temp___172)
            (= (to_rep (get temp___188 1)) temp___173))
          (and
            (and
              (and
                (and
                  (= (to_rep (get temp___188 2)) temp___174)
                  (= (to_rep (get temp___188 3)) temp___175))
                (and
                  (= (to_rep (get temp___188 4)) temp___176)
                  (= (to_rep (get temp___188 5)) temp___177)))
              (and
                (and
                  (= (to_rep (get temp___188 6)) temp___178)
                  (= (to_rep (get temp___188 7)) temp___179))
                (= (to_rep (get temp___188 8)) temp___180)))
            (and
              (and
                (and
                  (= (to_rep (get temp___188 9)) temp___181)
                  (= (to_rep (get temp___188 10)) temp___182))
                (and
                  (= (to_rep (get temp___188 11)) temp___183)
                  (= (to_rep (get temp___188 12)) temp___184)))
              (and
                (and
                  (= (to_rep (get temp___188 13)) temp___185)
                  (= (to_rep (get temp___188 14)) temp___186))
                (= (to_rep (get temp___188 15)) temp___187)))))
        (=>
          (and
            (and (and (<= 0 0) (<= 0 15)) (and (<= 0 1) (<= 1 15)))
            (and
              (and
                (and
                  (and (and (<= 0 2) (<= 2 15)) (and (<= 0 3) (<= 3 15)))
                  (and (and (<= 0 4) (<= 4 15)) (and (<= 0 5) (<= 5 15))))
                (and
                  (and (and (<= 0 6) (<= 6 15)) (and (<= 0 7) (<= 7 15)))
                  (and (<= 0 8) (<= 8 15))))
              (and
                (and
                  (and (and (<= 0 9) (<= 9 15)) (and (<= 0 10) (<= 10 15)))
                  (and (and (<= 0 11) (<= 11 15)) (and (<= 0 12) (<= 12 15))))
                (and
                  (and (and (<= 0 13) (<= 13 15)) (and (<= 0 14) (<= 14 15)))
                  (and (<= 0 15) (<= 15 15))))))
          (has_bounds temp___188 0 15))))))

;; Goal "def'vc"
;; File "sparknacl-stream.ads", line 15, characters 0-0
(assert
  (not true))

(check-sat)
